
Gurobi 11.0.0 (linux64) logging started Thu Jan  9 14:41:48 2025

Set parameter LogFile to value "gurobi.log"
Set parameter InfUnbdInfo to value 1
Gurobi Optimizer version 11.0.0 build v11.0.0rc2 (linux64 - "Ubuntu 22.04.4 LTS")

CPU model: AMD EPYC 7V13 64-Core Processor, instruction set [SSE2|AVX|AVX2]
Thread count: 128 physical cores, 128 logical processors, using up to 32 threads

Optimize a model with 39 rows, 160 columns and 116 nonzeros
Model fingerprint: 0x809a7c37
Model has 114 quadratic constraints
Model has 11 general constraints
Variable types: 37 continuous, 123 integer (0 binary)
Coefficient statistics:
  Matrix range     [1e+00, 2e+01]
  QMatrix range    [1e+00, 2e+02]
  QLMatrix range   [1e+00, 2e+02]
  Objective range  [1e+00, 1e+00]
  Bounds range     [1e+00, 2e+06]
  RHS range        [1e+00, 2e+06]
  QRHS range       [2e+02, 9e+03]
Using branch priorities (all 0).
Presolve added 90 rows and 52 columns
Presolve time: 0.01s
Presolved: 425 rows, 361 columns, 1225 nonzeros
Presolved model has 98 SOS constraint(s)
Presolved model has 32 bilinear constraint(s)
Warning: Model contains variables with very large bounds participating
         in product terms.
         Presolve was not able to compute smaller bounds for these variables.
         Consider bounding these variables or reformulating the model.


Solving non-convex MIQCP

Variable types: 85 continuous, 276 integer (114 binary)

Root relaxation: objective 7.373011e+01, 152 iterations, 0.00 seconds (0.00 work units)

    Nodes    |    Current Node    |     Objective Bounds      |     Work
 Expl Unexpl |  Obj  Depth IntInf | Incumbent    BestBd   Gap | It/Node Time

     0     0   73.73011    0   90          -   73.73011      -     -    0s
     0     0   73.73011    0   84          -   73.73011      -     -    0s
H    0     0                    111277.25000   73.73011   100%     -    0s
     0     0  123.73037    0  126 111277.250  123.73037   100%     -    0s
     0     0  134.46600    0  126 111277.250  134.46600   100%     -    0s
H    0     0                    88537.250000  134.46600   100%     -    0s
     0     0  180.30269    0  141 88537.2500  180.30269   100%     -    0s
     0     0  180.30269    0   72 88537.2500  180.30269   100%     -    1s
H    0     0                    69277.375000  180.30269   100%     -    1s
H    0     0                    61561.375000  180.30269   100%     -    1s
     0     0  180.30269    0  102 61561.3750  180.30269   100%     -    1s
     0     0  180.37150    0   92 61561.3750  180.37150   100%     -    1s
     0     0  214.60665    0   91 61561.3750  214.60665   100%     -    1s
H    0     0                    54898.434528  214.60665   100%     -    1s
     0     0  258.34936    0   91 54898.4345  258.34936   100%     -    1s
H    0     0                    42027.658083  258.34936  99.4%     -    1s
     0     0  881.67230    0   80 42027.6581  881.67230  97.9%     -    1s
     0     0 1638.16648    0   89 42027.6581 1638.16648  96.1%     -    1s
H    0     0                    28247.305883 1638.16648  94.2%     -    1s
     0     0 3382.04167    0   75 28247.3059 3382.04167  88.0%     -    1s
     0     0 3382.04167    0   74 28247.3059 3382.04167  88.0%     -    1s
     0     0 3498.22066    0   76 28247.3059 3498.22066  87.6%     -    2s
     0     0 3498.22066    0   75 28247.3059 3498.22066  87.6%     -    2s
     0     0 3616.67759    0   94 28247.3059 3616.67759  87.2%     -    2s
H    0     0                    27345.484114 3616.67759  86.8%     -    2s
     0     0 3801.29109    0   83 27345.4841 3801.29109  86.1%     -    2s
     0     0 3927.22767    0   61 27345.4841 3927.22767  85.6%     -    2s
     0     0 4654.39015    0   74 27345.4841 4654.39015  83.0%     -    2s
     0     0 5292.51311    0   60 27345.4841 5292.51311  80.6%     -    2s
     0     0 5894.50556    0   55 27345.4841 5894.50556  78.4%     -    2s
     0     0 6551.70703    0   55 27345.4841 6551.70703  76.0%     -    2s
H    0     0                    24344.407720 6551.70703  73.1%     -    2s
     0     0 7181.89662    0   55 24344.4077 7181.89662  70.5%     -    2s
     0     0 7844.53468    0   56 24344.4077 7844.53468  67.8%     -    2s
     0     0 8497.59596    0   56 24344.4077 8497.59596  65.1%     -    2s
     0     0 9142.10378    0   56 24344.4077 9142.10378  62.4%     -    2s
     0     0 9673.03910    0   91 24344.4077 9673.03910  60.3%     -    2s
     0     0 10287.4800    0  111 24344.4077 10287.4800  57.7%     -    3s
     0     0 10382.7529    0  107 24344.4077 10382.7529  57.4%     -    3s
     0     0 10774.9436    0  110 24344.4077 10774.9436  55.7%     -    3s
     0     0 11599.8792    0   96 24344.4077 11599.8792  52.4%     -    3s
     0     2 11599.8792    0   93 24344.4077 11599.8792  52.4%     -    3s
*  744    82              19    24304.426731 11599.8792  52.3%  10.2    4s

Cutting planes:
  Implied bound: 41
  Clique: 1
  MIR: 15
  StrongCG: 1
  RLT: 20
  Relax-and-lift: 26

Explored 1333 nodes (13218 simplex iterations) in 4.81 seconds (0.19 work units)
Thread count was 32 (of 128 available processors)

Solution count 10: 24304.4 24344.4 27345.5 ... 111277

Optimal solution found (tolerance 1.00e-04)
Warning: max constraint violation (6.7261e-04) exceeds tolerance
Warning: max general constraint violation (6.7261e-04) exceeds tolerance
Best objective 2.430442673137e+04, best bound 2.430442673137e+04, gap 0.0000%

Gurobi 11.0.0 (linux64) logging started Fri Jan 10 12:27:40 2025

Set parameter LogFile to value "gurobi.log"
Set parameter InfUnbdInfo to value 1
Gurobi Optimizer version 11.0.0 build v11.0.0rc2 (linux64 - "Ubuntu 22.04.4 LTS")

CPU model: AMD EPYC 7V13 64-Core Processor, instruction set [SSE2|AVX|AVX2]
Thread count: 128 physical cores, 128 logical processors, using up to 32 threads

Optimize a model with 39 rows, 160 columns and 116 nonzeros
Model fingerprint: 0x72a12e6e
Model has 114 quadratic constraints
Model has 11 general constraints
Variable types: 37 continuous, 123 integer (0 binary)
Coefficient statistics:
  Matrix range     [1e+00, 2e+01]
  QMatrix range    [1e+00, 2e+02]
  QLMatrix range   [1e+00, 2e+02]
  Objective range  [1e+00, 1e+00]
  Bounds range     [1e+00, 2e+06]
  RHS range        [1e+00, 2e+06]
  QRHS range       [2e+02, 1e+04]
Using branch priorities (all 0).
Presolve added 90 rows and 52 columns
Presolve time: 0.01s
Presolved: 425 rows, 361 columns, 1225 nonzeros
Presolved model has 98 SOS constraint(s)
Presolved model has 32 bilinear constraint(s)
Warning: Model contains variables with very large bounds participating
         in product terms.
         Presolve was not able to compute smaller bounds for these variables.
         Consider bounding these variables or reformulating the model.


Solving non-convex MIQCP

Variable types: 85 continuous, 276 integer (114 binary)

Root relaxation: objective 7.373011e+01, 152 iterations, 0.00 seconds (0.00 work units)

    Nodes    |    Current Node    |     Objective Bounds      |     Work
 Expl Unexpl |  Obj  Depth IntInf | Incumbent    BestBd   Gap | It/Node Time

     0     0   73.73011    0   88          -   73.73011      -     -    0s
     0     0   73.73011    0   82          -   73.73011      -     -    0s
H    0     0                    132325.18750   73.73011   100%     -    0s
H    0     0                    105775.18750   73.73011   100%     -    0s
     0     0  125.93750    0  119 105775.187  125.93750   100%     -    0s
H    0     0                    72578.247028  134.23255   100%     -    0s
     0     0  136.67313    0  119 72578.2470  136.67313   100%     -    0s
     0     0  186.20058    0  143 72578.2470  186.20058   100%     -    0s
     0     0  186.20058    0   72 72578.2470  186.20058   100%     -    0s
H    0     0                    69277.375000  186.20058   100%     -    0s
     0     0  186.20058    0  102 69277.3750  186.20058   100%     -    1s
     0     0  186.21859    0   93 69277.3750  186.21859   100%     -    1s
     0     0  228.01583    0   93 69277.3750  228.01583   100%     -    1s
H    0     0                    54898.434528  228.01583   100%     -    1s
     0     0  273.93068    0   93 54898.4345  273.93068   100%     -    1s
H    0     0                    27110.613649  273.93068  99.0%     -    1s
     0     0 1298.16044    0   83 27110.6136 1298.16044  95.2%     -    1s
     0     0 3382.04167    0   81 27110.6136 3382.04167  87.5%     -    1s
     0     0 3615.55979    0   81 27110.6136 3615.55979  86.7%     -    1s
     0     0 3615.55979    0   80 27110.6136 3615.55979  86.7%     -    1s
H    0     0                    23289.720692 3615.55979  84.5%     -    1s
     0     0 3781.75183    0   80 23289.7207 3781.75183  83.8%     -    1s
     0     0 3781.75183    0   79 23289.7207 3781.75183  83.8%     -    1s
     0     0 4012.20289    0   64 23289.7207 4012.20289  82.8%     -    1s
     0     0 4424.81293    0   82 23289.7207 4424.81293  81.0%     -    2s
     0     0 4694.41123    0   59 23289.7207 4694.41123  79.8%     -    2s
     0     0 5203.56489    0   72 23289.7207 5203.56489  77.7%     -    2s
     0     0 5720.02153    0   58 23289.7207 5720.02153  75.4%     -    2s
     0     0 6581.01807    0   58 23289.7207 6581.01807  71.7%     -    2s
     0     0 7732.30581    0   58 23289.7207 7732.30581  66.8%     -    2s
     0     0 7952.97088    0   59 23289.7207 7952.97088  65.9%     -    2s
     0     0 8295.60373    0   59 23289.7207 8295.60373  64.4%     -    2s
     0     0 8849.07116    0   59 23289.7207 8849.07116  62.0%     -    2s
     0     0 9026.13446    0   94 23289.7207 9026.13446  61.2%     -    2s
     0     0 9528.30977    0  110 23289.7207 9528.30977  59.1%     -    3s
     0     0 9951.89446    0  110 23289.7207 9951.89446  57.3%     -    3s
     0     0 10360.5206    0  113 23289.7207 10360.5206  55.5%     -    3s
     0     0 11404.9350    0  100 23289.7207 11404.9350  51.0%     -    3s
     0     2 11404.9350    0   97 23289.7207 11404.9350  51.0%     -    4s
H   48    39                    19792.513235 11404.9350  42.4%  21.6    4s
H   54    39                    18805.524228 11404.9350  39.4%  22.3    4s
*  309    93              15    18805.523073 11404.9350  39.4%  13.0    4s

Cutting planes:
  Learned: 1
  Gomory: 3
  Implied bound: 50
  Clique: 1
  MIR: 21
  Flow cover: 1
  Mod-K: 2
  RLT: 24
  Relax-and-lift: 28

Explored 850 nodes (7431 simplex iterations) in 4.66 seconds (0.18 work units)
Thread count was 32 (of 128 available processors)

Solution count 10: 18805.5 18805.5 19792.5 ... 132325

Optimal solution found (tolerance 1.00e-04)
Warning: max constraint violation (4.6439e-04) exceeds tolerance
Warning: max general constraint violation (4.6439e-04) exceeds tolerance
Best objective 1.880552307294e+04, best bound 1.880552307294e+04, gap 0.0000%
